
Gurobi 10.0.3 (linux64, gurobi_cl) logging started Thu Nov  9 11:53:23 2023

Set parameter Username
Set parameter TimeLimit to value 3600
Set parameter LogFile to value "RCPSP_1304.log"
Set parameter Threads to value 32
Academic license - for non-commercial use only - expires 2024-10-30
Using license file /home/jrivera6/gurobi-licenses/v1003/compute-0-37/gurobi.lic

Gurobi Optimizer version 10.0.3 build v10.0.3rc0 (linux64)
Copyright (c) 2023, Gurobi Optimization, LLC

Read MPS format model from file RCPSP_1304.mps
Reading time = 0.07 seconds
RCPSP_1304: 42975 rows, 17020 columns, 134609 nonzeros

CPU model: Intel(R) Xeon(R) Gold 6242 CPU @ 2.80GHz, instruction set [SSE2|AVX|AVX2|AVX512]
Thread count: 32 physical cores, 32 logical processors, using up to 32 threads

Optimize a model with 42975 rows, 17020 columns and 134609 nonzeros
Model fingerprint: 0xedd7303f
Variable types: 92 continuous, 16928 integer (16928 binary)
Coefficient statistics:
  Matrix range     [1e+00, 5e+02]
  Objective range  [1e+00, 1e+00]
  Bounds range     [1e+00, 1e+00]
  RHS range        [1e+00, 5e+02]
Presolve removed 7284 rows and 1313 columns (presolve time = 5s) ...
Presolve removed 8753 rows and 2385 columns
Presolve time: 5.36s
Presolved: 34222 rows, 14635 columns, 110484 nonzeros
Variable types: 91 continuous, 14544 integer (14544 binary)

Deterministic concurrent LP optimizer: primal and dual simplex (primal and dual model)
Showing first log only...

Root relaxation presolved: 34222 rows, 14635 columns, 110484 nonzeros


Root simplex log...

Iteration    Objective       Primal Inf.    Dual Inf.      Time
       0    8.7208682e+01   5.497189e-02   2.750098e+08      6s
    1805    8.6000000e+01   0.000000e+00   0.000000e+00      7s
Concurrent spin time: 0.08s

Solved with dual simplex (dual model)

Root relaxation: objective 8.600000e+01, 10340 iterations, 0.89 seconds (0.09 work units)

    Nodes    |    Current Node    |     Objective Bounds      |     Work
 Expl Unexpl |  Obj  Depth IntInf | Incumbent    BestBd   Gap | It/Node Time

     0     0   86.00000    0   14          -   86.00000      -     -    8s
H    0     0                      89.0000000   86.00000  3.37%     -   16s
     0     0   86.00000    0  136   89.00000   86.00000  3.37%     -   16s
     0     0   86.00000    0    4   89.00000   86.00000  3.37%     -   28s
H    0     0                      86.0000000   86.00000  0.00%     -   29s

Cutting planes:
  Gomory: 2
  Cover: 2
  Implied bound: 1
  MIR: 1
  StrongCG: 1
  RLT: 6
  Relax-and-lift: 1

Explored 1 nodes (25236 simplex iterations) in 29.25 seconds (5.63 work units)
Thread count was 32 (of 32 available processors)

Solution count 2: 86 89 

Optimal solution found (tolerance 1.00e-04)
Best objective 8.600000000000e+01, best bound 8.600000000000e+01, gap 0.0000%

Wrote result file 'RCPSP_1304.sol'

